NAME : X_38_seed_123_id_1
TYPE : CVRP
DIMENSION : 275
EDGE_WEIGHT_TYPE : EUC_2D
CAPACITY : 10
NODE_COORD_SECTION
1	40	575
2	223	403
3	193	817
4	458	686
5	447	703
6	356	738
7	431	734
8	215	899
9	440	771
10	447	555
11	214	448
12	379	505
13	238	356
14	309	793
15	233	795
16	485	689
17	218	842
18	327	764
19	445	713
20	129	316
21	246	943
22	265	704
23	586	471
24	500	730
25	172	395
26	489	674
27	174	805
28	206	901
29	490	684
30	156	436
31	465	713
32	273	458
33	471	720
34	166	845
35	201	386
36	165	351
37	187	419
38	333	270
39	605	693
40	182	399
41	505	663
42	173	793
43	241	660
44	430	635
45	482	656
46	300	526
47	444	631
48	146	557
49	196	818
50	103	694
51	554	751
52	516	736
53	453	681
54	237	413
55	251	415
56	215	390
57	400	552
58	618	771
59	77	804
60	239	365
61	471	678
62	217	380
63	457	720
64	596	616
65	202	807
66	119	380
67	59	669
68	179	411
69	217	701
70	577	765
71	233	399
72	232	663
73	319	330
74	50	808
75	168	783
76	294	759
77	221	414
78	257	770
79	462	567
80	203	798
81	360	441
82	121	887
83	76	845
84	561	671
85	228	494
86	198	831
87	197	918
88	272	804
89	255	446
90	567	747
91	440	710
92	417	638
93	559	792
94	438	711
95	119	786
96	152	434
97	190	320
98	183	412
99	485	719
100	242	417
101	228	438
102	168	832
103	166	898
104	196	783
105	597	701
106	146	806
107	264	814
108	135	819
109	322	520
110	219	754
111	413	689
112	461	631
113	234	861
114	531	652
115	171	797
116	514	745
117	90	771
118	220	903
119	447	686
120	190	807
121	218	412
122	449	671
123	205	843
124	233	360
125	228	467
126	164	828
127	409	904
128	460	523
129	194	790
130	309	318
131	409	737
132	214	353
133	465	813
134	392	407
135	252	377
136	171	791
137	475	837
138	460	631
139	141	758
140	208	410
141	178	791
142	441	715
143	186	439
144	138	570
145	217	364
146	512	738
147	561	653
148	232	908
149	206	466
150	359	394
151	136	357
152	164	350
153	91	411
154	239	371
155	262	882
156	220	684
157	146	761
158	151	761
159	504	658
160	442	658
161	88	876
162	194	717
163	307	415
164	452	655
165	542	655
166	497	827
167	448	683
168	423	661
169	262	605
170	284	341
171	290	430
172	116	418
173	296	445
174	306	396
175	468	632
176	512	589
177	479	695
178	227	422
179	260	357
180	185	849
181	599	535
182	169	834
183	184	819
184	418	664
185	406	395
186	173	388
187	161	862
188	213	433
189	246	353
190	258	821
191	347	641
192	330	833
193	140	797
194	159	810
195	241	408
196	141	864
197	279	887
198	446	697
199	120	794
200	219	823
201	215	408
202	227	797
203	302	360
204	526	682
205	134	696
206	321	300
207	639	574
208	451	747
209	189	574
210	305	683
211	198	407
212	185	819
213	174	426
214	256	825
215	497	766
216	179	845
217	503	758
218	642	781
219	265	422
220	342	665
221	227	406
222	422	670
223	170	357
224	492	752
225	323	854
226	454	656
227	204	807
228	166	785
229	211	401
230	201	815
231	183	781
232	254	438
233	213	801
234	328	540
235	217	298
236	244	888
237	112	882
238	36	752
239	217	817
240	120	947
241	197	348
242	493	660
243	433	663
244	473	659
245	113	421
246	198	376
247	285	316
248	220	434
249	159	661
250	232	749
251	179	342
252	190	438
253	214	813
254	90	631
255	207	849
256	462	649
257	241	360
258	229	841
259	129	712
260	338	770
261	467	722
262	251	764
263	409	693
264	221	398
265	161	877
266	138	701
267	464	666
268	460	863
269	86	445
270	220	482
271	548	728
272	420	989
273	209	853
274	228	710
275	176	246
DEMAND_SECTION
1	0
2	1
3	1
4	1
5	1
6	1
7	1
8	1
9	1
10	1
11	1
12	1
13	1
14	1
15	1
16	1
17	1
18	1
19	1
20	1
21	1
22	1
23	1
24	1
25	1
26	1
27	1
28	1
29	1
30	1
31	1
32	1
33	1
34	1
35	1
36	1
37	1
38	1
39	1
40	1
41	1
42	1
43	1
44	1
45	1
46	1
47	1
48	1
49	1
50	1
51	1
52	1
53	1
54	1
55	1
56	1
57	1
58	1
59	1
60	1
61	1
62	1
63	1
64	1
65	1
66	1
67	1
68	1
69	1
70	1
71	1
72	1
73	1
74	1
75	1
76	1
77	1
78	1
79	1
80	1
81	1
82	1
83	1
84	1
85	1
86	1
87	1
88	1
89	1
90	1
91	1
92	1
93	1
94	1
95	1
96	1
97	1
98	1
99	1
100	1
101	1
102	1
103	1
104	1
105	1
106	1
107	1
108	1
109	1
110	1
111	1
112	1
113	1
114	1
115	1
116	1
117	1
118	1
119	1
120	1
121	1
122	1
123	1
124	1
125	1
126	1
127	1
128	1
129	1
130	1
131	1
132	1
133	1
134	1
135	1
136	1
137	1
138	1
139	1
140	1
141	1
142	1
143	1
144	1
145	1
146	1
147	1
148	1
149	1
150	1
151	1
152	1
153	1
154	1
155	1
156	1
157	1
158	1
159	1
160	1
161	1
162	1
163	1
164	1
165	1
166	1
167	1
168	1
169	1
170	1
171	1
172	1
173	1
174	1
175	1
176	1
177	1
178	1
179	1
180	1
181	1
182	1
183	1
184	1
185	1
186	1
187	1
188	1
189	1
190	1
191	1
192	1
193	1
194	1
195	1
196	1
197	1
198	1
199	1
200	1
201	1
202	1
203	1
204	1
205	1
206	1
207	1
208	1
209	1
210	1
211	1
212	1
213	1
214	1
215	1
216	1
217	1
218	1
219	1
220	1
221	1
222	1
223	1
224	1
225	1
226	1
227	1
228	1
229	1
230	1
231	1
232	1
233	1
234	1
235	1
236	1
237	1
238	1
239	1
240	1
241	1
242	1
243	1
244	1
245	1
246	1
247	1
248	1
249	1
250	1
251	1
252	1
253	1
254	1
255	1
256	1
257	1
258	1
259	1
260	1
261	1
262	1
263	1
264	1
265	1
266	1
267	1
268	1
269	1
270	1
271	1
272	1
273	1
274	1
275	1
DEPOT_SECTION
1
-1
EOF
